[2026-03-23T16:07:56.074Z] Pipeline "set_exp_3_exp_3_n030_c005_g002" → 2026_03_23_16_07_55_set_exp_3_exp_3_n030_c005_g002_max.sol
Set parameter WLSAccessID
Set parameter WLSSecret
Set parameter LicenseID to value 2792458
Set parameter LogFile to value "gurobi.log"
Using license file /root/gurobi.lic
Academic license 2792458 - for non-commercial use only - registered to an___@studenti.unipg.it

Gurobi Optimizer version 13.0.1 build v13.0.1rc0 (linux64 - "Ubuntu 24.04.4 LTS")
Copyright (c) 2026, Gurobi Optimization, LLC

Warning: Duplicate section found (read 'binary') - Is a variable name equal to an LP file format keyword?
Warning: Duplicate section found (read 'binary') - Is a variable name equal to an LP file format keyword?
Warning: Duplicate section found (read 'binary') - Is a variable name equal to an LP file format keyword?
Warning: Duplicate section found (read 'binary') - Is a variable name equal to an LP file format keyword?
Warning: Duplicate section found (read 'binary') - Is a variable name equal to an LP file format keyword?
Warning: Duplicate section found (read 'binary') - Is a variable name equal to an LP file format keyword?
Warning: Duplicate section found (read 'binary') - Is a variable name equal to an LP file format keyword?
Warning: Duplicate section found (read 'binary') - Is a variable name equal to an LP file format keyword?
Warning: Duplicate section found (read 'binary') - Is a variable name equal to an LP file format keyword?
Warning: Duplicate section found (read 'binary') - Is a variable name equal to an LP file format keyword?
Warning: Further warnings of this type will be omitted.
Read LP format model from file /root/bgw/data/uploads/2026_03_23_16_07_55_set_exp_3_exp_3_n030_c005_g002_max.lp
Reading time = 0.01 seconds
: 8967 rows, 640 columns, 26904 nonzeros

Using Gurobi shared library /opt/gurobi1301/linux64/lib/libgurobi.so.13.0.1

CPU model: AMD EPYC-Genoa Processor, instruction set [SSE2|AVX|AVX2|AVX512]
Thread count: 16 physical cores, 16 logical processors, using up to 16 threads

Academic license 2792458 - for non-commercial use only - registered to an___@studenti.unipg.it
Optimize a model with 8967 rows, 640 columns and 26904 nonzeros (Max)
Model fingerprint: 0xb6ac2c64
Model has 5 linear objective coefficients
Variable types: 35 continuous, 605 integer (605 binary)
Coefficient statistics:
  Matrix range     [1e+00, 3e+01]
  Objective range  [1e+00, 1e+00]
  Bounds range     [1e+00, 1e+00]
  RHS range        [1e+00, 3e+01]

Found heuristic solution: objective 5.0000000
Presolve removed 808 rows and 180 columns
Presolve time: 0.04s
Presolved: 8159 rows, 460 columns, 24774 nonzeros
Variable types: 0 continuous, 460 integer (449 binary)
Found heuristic solution: objective 6.0000000

Root relaxation: objective 2.000000e+01, 448 iterations, 0.03 seconds (0.04 work units)

    Nodes    |    Current Node    |     Objective Bounds      |     Work
 Expl Unexpl |  Obj  Depth IntInf | Incumbent    BestBd   Gap | It/Node Time

     0     0   20.00000    0   27    6.00000   20.00000   233%     -    0s
H    0     0                      14.0000000   20.00000  42.9%     -    0s
H    0     0                      15.0000000   20.00000  33.3%     -    0s
     0     0   20.00000    0   64   15.00000   20.00000  33.3%     -    0s
     0     0   20.00000    0   64   15.00000   20.00000  33.3%     -    0s
     0     0   20.00000    0   53   15.00000   20.00000  33.3%     -    0s
     0     0   20.00000    0   28   15.00000   20.00000  33.3%     -    0s
     0     0   20.00000    0   28   15.00000   20.00000  33.3%     -    0s
     0     0   20.00000    0   33   15.00000   20.00000  33.3%     -    0s
     0     0   20.00000    0   29   15.00000   20.00000  33.3%     -    0s
     0     0   20.00000    0   29   15.00000   20.00000  33.3%     -    0s
     0     0   20.00000    0   37   15.00000   20.00000  33.3%     -    0s
     0     0   20.00000    0   31   15.00000   20.00000  33.3%     -    0s
     0     0   20.00000    0   42   15.00000   20.00000  33.3%     -    0s
     0     0   20.00000    0   33   15.00000   20.00000  33.3%     -    0s
     0     0   20.00000    0   26   15.00000   20.00000  33.3%     -    0s
     0     0   20.00000    0   29   15.00000   20.00000  33.3%     -    0s
     0     0   20.00000    0   26   15.00000   20.00000  33.3%     -    0s
     0     0   20.00000    0   26   15.00000   20.00000  33.3%     -    0s
     0     0   20.00000    0   26   15.00000   20.00000  33.3%     -    0s
     0     2   20.00000    0   26   15.00000   20.00000  33.3%     -    1s
  1471   379 infeasible   14        15.00000   19.00000  26.7%   179    5s
  3136   393   16.84688   11  186   15.00000   18.00000  20.0%   263   10s

Cutting planes:
  Cover: 32
  MIR: 2
  StrongCG: 1
  Inf proof: 58

Explored 4485 nodes (1170355 simplex iterations) in 12.23 seconds (20.01 work units)
Thread count was 16 (of 16 available processors)

Solution count 4: 15 14 6 5 

Optimal solution found (tolerance 1.00e-04)
Best objective 1.500000000000e+01, best bound 1.500000000000e+01, gap 0.0000%

Wrote result file '/root/bgw/data/results/2026_03_23_16_07_55_set_exp_3_exp_3_n030_c005_g002_max.sol'

